Data path: /scratch/opt/lxu/CFLG/benchmarks/random_A
Instance: r_10_0.3_12.txt
Result path: /scratch/opt/lxu/CFLG/results/random_A
Solver: Gurobi
Time limit: 7200
Formulation: LEFPAD
Cover: Small
julia --project=. src/main.jl /scratch/opt/lxu/CFLG/benchmarks/random_A r_10_0.3_12.txt /scratch/opt/lxu/CFLG/results/random_A Gurobi 7200 LEFPAD Small
The latest version of Julia in the `release` channel is 1.11.6+0.x64.linux.gnu. You currently have `1.11.4+0.x64.linux.gnu` installed. Run:

  juliaup update

in your terminal shell to install Julia 1.11.6+0.x64.linux.gnu and update the `release` channel to that version.
/scratch/opt/lxu/CFLG/benchmarks/random_A Gurobi 7200.0 /scratch/opt/lxu/CFLG/results/random_A r_10_0.3_12.txt LEFPAD Small
/scratch/opt/lxu/CFLG/benchmarks/random_A/r_10_0.3_12.txt

 read graph
data loaded


after absorb:8 10

max_piece:10
problem_graph/original graph: node: 9/10 edge: 11/12 dlt: 0.152625614307883 break_avg_len: 0.6660026806162167 break_max_len: 1.2728694279731012Vbar/V, Ebar/E(8, 9, 10, 11)
Set parameter TokenServer to value "solice01.zib.de"
Set parameter Threads to value 1
Set parameter OutputFlag to value 1
Gurobi Optimizer version 12.0.1 build v12.0.1rc0 (linux64 - "Debian GNU/Linux 12 (bookworm)")

CPU model: Intel(R) Xeon(R) Gold 5122 CPU @ 3.60GHz, instruction set [SSE2|AVX|AVX2|AVX512]
Thread count: 8 physical cores, 16 logical processors, using up to 1 threads

Non-default parameters:
Threads  1

Optimize a model with 20 rows, 33 columns and 55 nonzeros
Model fingerprint: 0x2bce2c29
Coefficient statistics:
  Matrix range     [1e+00, 1e+00]
  Objective range  [1e+00, 1e+00]
  Bounds range     [1e+00, 1e+00]
  RHS range        [1e+00, 1e+00]
Presolve removed 7 rows and 8 columns
Presolve time: 0.00s
Presolved: 13 rows, 25 columns, 40 nonzeros

Iteration    Objective       Primal Inf.    Dual Inf.      Time
       0    1.1000000e+01   5.000000e+00   0.000000e+00      0s
       8    8.0000000e+00   0.000000e+00   0.000000e+00      0s

Solved in 8 iterations and 0.00 seconds (0.00 work units)
Optimal objective  8.000000000e+00

User-callback calls 87, time in user-callback 0.00 sec
elapsed CPU time: 1.393333 seconds
Set parameter TokenServer to value "solice01.zib.de"
Set parameter Threads to value 1
Set parameter OutputFlag to value 1
Set parameter MIPGap to value 0.0001
Set parameter TimeLimit to value 7198.606667

 more cuts: false 0.152625614307883 false
is_attach:trueformulation:LEFPAD8 3 2

 model loaded

Gurobi Optimizer version 12.0.1 build v12.0.1rc0 (linux64 - "Debian GNU/Linux 12 (bookworm)")

CPU model: Intel(R) Xeon(R) Gold 5122 CPU @ 3.60GHz, instruction set [SSE2|AVX|AVX2|AVX512]
Thread count: 8 physical cores, 16 logical processors, using up to 1 threads

Non-default parameters:
TimeLimit  7198.606667
Threads  1

Optimize a model with 216 rows, 145 columns and 494 nonzeros
Model fingerprint: 0xbde8763a
Variable types: 65 continuous, 80 integer (80 binary)
Coefficient statistics:
  Matrix range     [2e-07, 1e+00]
  Objective range  [1e+00, 1e+00]
  Bounds range     [7e-02, 1e+00]
  RHS range        [6e-02, 1e+00]
Presolve removed 116 rows and 46 columns
Presolve time: 0.00s
Presolved: 100 rows, 99 columns, 332 nonzeros
Variable types: 57 continuous, 42 integer (42 binary)
Found heuristic solution: objective 28.0000000
Found heuristic solution: objective 26.0000000

Root relaxation: objective 1.969519e+01, 86 iterations, 0.00 seconds (0.00 work units)

    Nodes    |    Current Node    |     Objective Bounds      |     Work
 Expl Unexpl |  Obj  Depth IntInf | Incumbent    BestBd   Gap | It/Node Time

     0     0   19.69519    0   24   26.00000   19.69519  24.2%     -    0s
H    0     0                      25.0000000   19.69519  21.2%     -    0s
     0     0   20.88771    0   31   25.00000   20.88771  16.4%     -    0s
H    0     0                      24.0000000   20.92044  12.8%     -    0s
     0     0   20.93155    0   32   24.00000   20.93155  12.8%     -    0s
     0     0   20.93421    0   32   24.00000   20.93421  12.8%     -    0s
     0     0   20.93441    0   31   24.00000   20.93441  12.8%     -    0s
     0     0   21.10781    0   29   24.00000   21.10781  12.1%     -    0s
     0     0   21.15629    0   34   24.00000   21.15629  11.8%     -    0s
     0     0   21.16464    0   34   24.00000   21.16464  11.8%     -    0s
     0     0   21.16563    0   34   24.00000   21.16563  11.8%     -    0s
     0     0   21.16602    0   34   24.00000   21.16602  11.8%     -    0s
     0     0   21.20510    0   33   24.00000   21.20510  11.6%     -    0s
     0     0   21.22833    0   33   24.00000   21.22833  11.5%     -    0s
     0     0   21.22833    0   33   24.00000   21.22833  11.5%     -    0s
     0     0   21.22941    0   33   24.00000   21.22941  11.5%     -    0s
     0     0   21.25105    0   33   24.00000   21.25105  11.5%     -    0s
     0     0   21.25105    0   33   24.00000   21.25105  11.5%     -    0s
     0     2   21.26140    0   33   24.00000   21.26140  11.4%     -    0s

Cutting planes:
  Gomory: 8
  Cover: 20
  Implied bound: 16
  Clique: 3
  MIR: 21
  Flow cover: 10
  GUB cover: 1
  Network: 1
  RLT: 10
  BQP: 1

Explored 360 nodes (4312 simplex iterations) in 0.17 seconds (0.08 work units)
Thread count was 1 (of 16 available processors)

Solution count 4: 24 25 26 28 

Optimal solution found (tolerance 1.00e-04)
Best objective 2.400000000000e+01, best bound 2.400000000000e+01, gap 0.0000%

User-callback calls 1284, time in user-callback 0.00 sec

 sepatime0 0 0
24.0
Stat(MathOptInterface.OPTIMAL, 24.0, 24.0, 0.0, 0.0, 1.393333, 0.17087197303771973, 360, Main.CFLG.LEFPAD, "", #undef)
